POSCAR file written by OVITO Basic 3.10.
   1.00000000000000     
    12.8951037455921540    0.0000007183358174    0.0000013384018882
     0.0000008382680380   15.4384931231971834    0.0000030108727686
     0.0000016989112575    0.0000032129441935   16.4938743701762611
  Mg/a90315392b5  Al/17880443556
142   2
Direct
0.25023974   0.16666900   0.05994585
0.00000146   0.16666887   0.05994490
0.12526196   0.16666658   0.22660079
0.12486993   0.33376197   0.11446511
0.12487001   -0.00042544   0.11446474
0.50000155   0.16666917   0.05986850
0.37504264   0.16666683   0.22667608
0.62501529   0.00007529   0.11471185
0.62501521   0.33326182   0.11471130
0.37498591   0.33326161   0.11471174
0.62496287   0.16666686   0.22667614
0.37498621   0.00007514   0.11471148
0.37497848   0.50007399   0.22669859
0.74976285   0.16666883   0.05994585
0.87513141   0.33376214   0.11446457
0.87474307   0.16666684   0.22660056
0.87513155   -0.00042520   0.11446518
0.25004921   0.33349808   0.28121567
0.12503744   0.33358253   0.44797823
0.00000231   0.33370416   0.28131735
0.25018065   0.16666448   0.39330082
0.24993962   0.50019135   0.39319960
0.00000168   0.50021286   0.39302429
0.00000097   0.16666436   0.39330211
0.50000133   0.50010786   0.39322742
0.62494007   0.33344537   0.44802968
0.50000089   0.16666444   0.39330901
0.37506266   0.33344536   0.44802971
0.50000203   0.33337281   0.28132232
0.74982128   0.16666467   0.39330103
0.74995556   0.33349812   0.28121529
0.87496548   0.33358278   0.44797812
0.75006315   0.50019132   0.39319922
0.12519152   0.16666455   0.56005791
0.25010998   0.33350245   0.61480120
0.25015581   0.16666663   0.72658711
0.12511634   0.50013730   0.55984169
0.62476500   0.16666504   0.56002306
0.37523216   0.16666471   0.56002311
0.49999932   0.33343422   0.61476403
0.49999757   0.16666675   0.72677276
0.37497490   0.50013901   0.56011332
0.49999704   0.50033777   0.72700826
0.99999788   0.16666663   0.72662736
0.99999937   0.33345995   0.61461174
0.87480572   0.16666457   0.56005780
0.74988834   0.33350225   0.61480104
0.74983945   0.16666670   0.72658669
0.87488172   0.50013707   0.55984173
0.75061904   0.50055790   0.72714460
0.24975794   0.33364876   0.94791688
0.12507587   0.16666856   0.89327660
0.12514131   0.33373833   0.78159708
0.24975830   -0.00030998   0.94791658
0.12514051   -0.00040321   0.78159699
0.62491744   0.16666928   0.89334242
0.49999821   0.33328469   0.94798158
0.37508097   0.16666912   0.89334256
0.62503659   0.33354218   0.78136140
0.37495911   0.33354211   0.78136141
0.62503678   -0.00020699   0.78136161
0.49999868   0.00005411   0.94798201
0.37495924   -0.00020691   0.78136154
0.99999854   0.33394424   0.94799494
0.75023890   0.33364866   0.94791627
0.99999815   -0.00060628   0.94799509
0.87485419   -0.00040317   0.78159660
0.87492232   0.16666866   0.89327642
0.87485499   0.33373815   0.78159664
0.75023870   -0.00030980   0.94791687
0.25076542   0.83354637   0.06024469
0.12427641   0.66666822   0.11208696
0.12478839   0.83282633   0.22593311
0.00000116   0.50218919   0.05850013
0.25076479   0.49979153   0.06024491
0.00000108   0.83114669   0.05849991
0.12478819   0.50050713   0.22593334
0.50000160   0.83323306   0.06005751
0.37460428   0.66666831   0.11449459
0.37497901   0.83325929   0.22669819
0.62539715   0.66666825   0.11449425
0.62502752   0.83325949   0.22669796
0.50000064   0.50010428   0.06005742
0.62502682   0.50007392   0.22669798
0.74923752   0.83354675   0.06024492
0.87521795   0.83282641   0.22593343
0.87572474   0.66666798   0.11208650
0.74923665   0.49979127   0.06024446
0.87521761   0.50050714   0.22593309
0.00000333   0.66666679   0.28039036
0.24993990   0.83313765   0.39319924
0.24985183   0.66666584   0.28106605
0.00000161   0.83311581   0.39302458
0.12496818   0.66666426   0.44786512
0.00000284   0.99962743   0.28131731
0.25004983   -0.00016628   0.28121539
0.12503805   0.99974584   0.44797747
0.37506302   -0.00011696   0.44803020
0.50000170   0.83322062   0.39322704
0.37490506   0.66666417   0.44802055
0.50000254   0.66666571   0.28123231
0.62509866   0.66666383   0.44802072
0.62493954   -0.00011695   0.44803046
0.50000206   0.99995874   0.28132228
0.75006299   0.83313719   0.39319954
0.87503482   0.66666396   0.44786494
0.75015443   0.66666572   0.28106549
0.74995532   -0.00016612   0.28121554
0.87496493   0.99974558   0.44797767
0.12511632   0.83319170   0.55984165
0.24937548   0.83277566   0.72714446
0.24979569   0.66666496   0.61495277
0.25010953   0.99982721   0.61480117
0.24937547   0.50055818   0.72714414
0.62502298   0.83318911   0.56011293
0.37497473   0.83318962   0.56011311
0.49999676   0.83299564   0.72700835
0.49999993   0.66666477   0.61479772
0.49999882   0.99989553   0.61476431
0.99999962   0.66666496   0.61501011
0.99999855   0.99986963   0.61461129
0.99999747   0.83366955   0.72596164
0.87488127   0.83319139   0.55984175
0.75061846   0.83277541   0.72714429
0.75020358   0.66666470   0.61495333
0.99999756   0.49966379   0.72596180
0.74988770   0.99982705   0.61480093
0.12241447   0.66666752   0.78330951
0.24731028   0.66666923   0.94869614
0.12306868   0.83101377   0.89411372
0.12306834   0.50232324   0.89411331
0.62595769   0.50056750   0.89336272
0.37403795   0.50056713   0.89336274
0.62595812   0.83277035   0.89336272
0.62594278   0.66666751   0.78186625
0.49999876   0.66666904   0.94799476
0.37405133   0.66666764   0.78186622
0.37403833   0.83277033   0.89336283
0.87692775   0.50232323   0.89411378
0.87758351   0.66666784   0.78330987
0.87692790   0.83101475   0.89411360
0.75268504   0.66666935   0.94869599
0.99999746   0.66666579   0.94834108
0.62502339   0.50013885   0.56011354
  0.7499553219206639 -0.0001661232452076  0.2812155421935996
  0.8749649282347991  0.9997455771413392  0.4479776749182625
  0.1251163198527299  0.8331917049843628  0.5598416464557607
  0.2493754813106356  0.8327756558697403  0.7271444553944749
  0.2497956923693496  0.6666649565226506  0.6149527655429914
  0.2501095261427841  0.9998272127827755  0.6148011685402082
  0.2493754740219390  0.5005581825112417  0.7271441417187825
  0.6250229816901534  0.8331891142925969  0.5601129290888316
  0.3749747328255565  0.8331896170869664  0.5601131144264339
  0.4999967634490658  0.8329956390514199  0.7270083537759549
  0.4999999313968972  0.6666647653075680  0.6147977169063683
  0.4999988243778922  0.9998955250366602  0.6147643115165754
  0.9999996217695486  0.6666649599772519  0.6150101062409857
  0.9999985462214748  0.9998696310976321  0.6146112888674419
  0.9999974679406258  0.8336695542378035  0.7259616421089411
  0.8748812748567758  0.8331913869319982  0.5598417529647397
  0.7506184558870304  0.8327754119146971  0.7271442934377368
  0.7502035830467921  0.6666646980695817  0.6149533307741634
  0.9999975601423831  0.4996637904025349  0.7259618008642709
  0.7498877034794771  0.9998270518174788  0.6148009341921444
  0.1224144656416751  0.6666675222378894  0.7833095120185286
  0.2473102771365495  0.6666692285380310  0.9486961406179363
  0.1230686797890934  0.8310137716521468  0.8941137180585925
  0.1230683394341009  0.5023232398236612  0.8941133094247209
  0.6259576899290985  0.5005674994434754  0.8933627158482496
  0.3740379534949830  0.5005671250695468  0.8933627353883695
  0.6259581185364756  0.8327703458773725  0.8933627242666714
  0.6259427801327409  0.6666675065978275  0.7818662462234154
  0.4999987645193895  0.6666690435146944  0.9479947563071207
  0.3740513251005668  0.6666676384850346  0.7818662192048290
  0.3740383288108187  0.8327703255543550  0.8933628326575503
  0.8769277469286829  0.5023232316770977  0.8941137825013040
  0.8775835132332406  0.6666678398439599  0.7833098688589103
  0.8769279048807092  0.8310147454902975  0.8941135956712194
  0.7526850403377302  0.6666693547182891  0.9486959911609489
  0.9999974604251312  0.6666657881649933  0.9483410753992875
 
  0.00000000E+00  0.00000000E+00  0.00000000E+00
  0.00000000E+00  0.00000000E+00  0.00000000E+00
  0.00000000E+00  0.00000000E+00  0.00000000E+00
  0.00000000E+00  0.00000000E+00  0.00000000E+00
  0.00000000E+00  0.00000000E+00  0.00000000E+00
  0.00000000E+00  0.00000000E+00  0.00000000E+00
  0.00000000E+00  0.00000000E+00  0.00000000E+00
  0.00000000E+00  0.00000000E+00  0.00000000E+00
  0.00000000E+00  0.00000000E+00  0.00000000E+00
  0.00000000E+00  0.00000000E+00  0.00000000E+00
  0.00000000E+00  0.00000000E+00  0.00000000E+00
  0.00000000E+00  0.00000000E+00  0.00000000E+00
  0.00000000E+00  0.00000000E+00  0.00000000E+00
  0.00000000E+00  0.00000000E+00  0.00000000E+00
  0.00000000E+00  0.00000000E+00  0.00000000E+00
  0.00000000E+00  0.00000000E+00  0.00000000E+00
  0.00000000E+00  0.00000000E+00  0.00000000E+00
  0.00000000E+00  0.00000000E+00  0.00000000E+00
  0.00000000E+00  0.00000000E+00  0.00000000E+00
  0.00000000E+00  0.00000000E+00  0.00000000E+00
  0.00000000E+00  0.00000000E+00  0.00000000E+00
  0.00000000E+00  0.00000000E+00  0.00000000E+00
  0.00000000E+00  0.00000000E+00  0.00000000E+00
  0.00000000E+00  0.00000000E+00  0.00000000E+00
  0.00000000E+00  0.00000000E+00  0.00000000E+00
  0.00000000E+00  0.00000000E+00  0.00000000E+00
  0.00000000E+00  0.00000000E+00  0.00000000E+00
  0.00000000E+00  0.00000000E+00  0.00000000E+00
  0.00000000E+00  0.00000000E+00  0.00000000E+00
  0.00000000E+00  0.00000000E+00  0.00000000E+00
  0.00000000E+00  0.00000000E+00  0.00000000E+00
  0.00000000E+00  0.00000000E+00  0.00000000E+00
  0.00000000E+00  0.00000000E+00  0.00000000E+00
  0.00000000E+00  0.00000000E+00  0.00000000E+00
  0.00000000E+00  0.00000000E+00  0.00000000E+00
  0.00000000E+00  0.00000000E+00  0.00000000E+00
  0.00000000E+00  0.00000000E+00  0.00000000E+00
  0.00000000E+00  0.00000000E+00  0.00000000E+00
  0.00000000E+00  0.00000000E+00  0.00000000E+00
  0.00000000E+00  0.00000000E+00  0.00000000E+00
  0.00000000E+00  0.00000000E+00  0.00000000E+00
  0.00000000E+00  0.00000000E+00  0.00000000E+00
  0.00000000E+00  0.00000000E+00  0.00000000E+00
  0.00000000E+00  0.00000000E+00  0.00000000E+00
  0.00000000E+00  0.00000000E+00  0.00000000E+00
  0.00000000E+00  0.00000000E+00  0.00000000E+00
  0.00000000E+00  0.00000000E+00  0.00000000E+00
  0.00000000E+00  0.00000000E+00  0.00000000E+00
  0.00000000E+00  0.00000000E+00  0.00000000E+00
  0.00000000E+00  0.00000000E+00  0.00000000E+00
  0.00000000E+00  0.00000000E+00  0.00000000E+00
  0.00000000E+00  0.00000000E+00  0.00000000E+00
  0.00000000E+00  0.00000000E+00  0.00000000E+00
  0.00000000E+00  0.00000000E+00  0.00000000E+00
  0.00000000E+00  0.00000000E+00  0.00000000E+00
  0.00000000E+00  0.00000000E+00  0.00000000E+00
  0.00000000E+00  0.00000000E+00  0.00000000E+00
  0.00000000E+00  0.00000000E+00  0.00000000E+00
  0.00000000E+00  0.00000000E+00  0.00000000E+00
  0.00000000E+00  0.00000000E+00  0.00000000E+00
  0.00000000E+00  0.00000000E+00  0.00000000E+00
  0.00000000E+00  0.00000000E+00  0.00000000E+00
  0.00000000E+00  0.00000000E+00  0.00000000E+00
  0.00000000E+00  0.00000000E+00  0.00000000E+00
  0.00000000E+00  0.00000000E+00  0.00000000E+00
  0.00000000E+00  0.00000000E+00  0.00000000E+00
  0.00000000E+00  0.00000000E+00  0.00000000E+00
  0.00000000E+00  0.00000000E+00  0.00000000E+00
  0.00000000E+00  0.00000000E+00  0.00000000E+00
  0.00000000E+00  0.00000000E+00  0.00000000E+00
  0.00000000E+00  0.00000000E+00  0.00000000E+00
  0.00000000E+00  0.00000000E+00  0.00000000E+00
  0.00000000E+00  0.00000000E+00  0.00000000E+00
  0.00000000E+00  0.00000000E+00  0.00000000E+00
  0.00000000E+00  0.00000000E+00  0.00000000E+00
  0.00000000E+00  0.00000000E+00  0.00000000E+00
  0.00000000E+00  0.00000000E+00  0.00000000E+00
  0.00000000E+00  0.00000000E+00  0.00000000E+00
  0.00000000E+00  0.00000000E+00  0.00000000E+00
  0.00000000E+00  0.00000000E+00  0.00000000E+00
  0.00000000E+00  0.00000000E+00  0.00000000E+00
  0.00000000E+00  0.00000000E+00  0.00000000E+00
  0.00000000E+00  0.00000000E+00  0.00000000E+00
  0.00000000E+00  0.00000000E+00  0.00000000E+00
  0.00000000E+00  0.00000000E+00  0.00000000E+00
  0.00000000E+00  0.00000000E+00  0.00000000E+00
  0.00000000E+00  0.00000000E+00  0.00000000E+00
  0.00000000E+00  0.00000000E+00  0.00000000E+00
  0.00000000E+00  0.00000000E+00  0.00000000E+00
  0.00000000E+00  0.00000000E+00  0.00000000E+00
  0.00000000E+00  0.00000000E+00  0.00000000E+00
  0.00000000E+00  0.00000000E+00  0.00000000E+00
  0.00000000E+00  0.00000000E+00  0.00000000E+00
  0.00000000E+00  0.00000000E+00  0.00000000E+00
  0.00000000E+00  0.00000000E+00  0.00000000E+00
  0.00000000E+00  0.00000000E+00  0.00000000E+00
  0.00000000E+00  0.00000000E+00  0.00000000E+00
  0.00000000E+00  0.00000000E+00  0.00000000E+00
  0.00000000E+00  0.00000000E+00  0.00000000E+00
  0.00000000E+00  0.00000000E+00  0.00000000E+00
  0.00000000E+00  0.00000000E+00  0.00000000E+00
  0.00000000E+00  0.00000000E+00  0.00000000E+00
  0.00000000E+00  0.00000000E+00  0.00000000E+00
  0.00000000E+00  0.00000000E+00  0.00000000E+00
  0.00000000E+00  0.00000000E+00  0.00000000E+00
  0.00000000E+00  0.00000000E+00  0.00000000E+00
  0.00000000E+00  0.00000000E+00  0.00000000E+00
  0.00000000E+00  0.00000000E+00  0.00000000E+00
  0.00000000E+00  0.00000000E+00  0.00000000E+00
  0.00000000E+00  0.00000000E+00  0.00000000E+00
  0.00000000E+00  0.00000000E+00  0.00000000E+00
  0.00000000E+00  0.00000000E+00  0.00000000E+00
  0.00000000E+00  0.00000000E+00  0.00000000E+00
  0.00000000E+00  0.00000000E+00  0.00000000E+00
  0.00000000E+00  0.00000000E+00  0.00000000E+00
  0.00000000E+00  0.00000000E+00  0.00000000E+00
  0.00000000E+00  0.00000000E+00  0.00000000E+00
  0.00000000E+00  0.00000000E+00  0.00000000E+00
  0.00000000E+00  0.00000000E+00  0.00000000E+00
  0.00000000E+00  0.00000000E+00  0.00000000E+00
  0.00000000E+00  0.00000000E+00  0.00000000E+00
  0.00000000E+00  0.00000000E+00  0.00000000E+00
  0.00000000E+00  0.00000000E+00  0.00000000E+00
  0.00000000E+00  0.00000000E+00  0.00000000E+00
  0.00000000E+00  0.00000000E+00  0.00000000E+00
  0.00000000E+00  0.00000000E+00  0.00000000E+00
  0.00000000E+00  0.00000000E+00  0.00000000E+00
  0.00000000E+00  0.00000000E+00  0.00000000E+00
  0.00000000E+00  0.00000000E+00  0.00000000E+00
  0.00000000E+00  0.00000000E+00  0.00000000E+00
  0.00000000E+00  0.00000000E+00  0.00000000E+00
  0.00000000E+00  0.00000000E+00  0.00000000E+00
  0.00000000E+00  0.00000000E+00  0.00000000E+00
  0.00000000E+00  0.00000000E+00  0.00000000E+00
  0.00000000E+00  0.00000000E+00  0.00000000E+00
  0.00000000E+00  0.00000000E+00  0.00000000E+00
  0.00000000E+00  0.00000000E+00  0.00000000E+00
  0.00000000E+00  0.00000000E+00  0.00000000E+00
  0.00000000E+00  0.00000000E+00  0.00000000E+00
  0.00000000E+00  0.00000000E+00  0.00000000E+00
  0.00000000E+00  0.00000000E+00  0.00000000E+00
  0.00000000E+00  0.00000000E+00  0.00000000E+00
  0.00000000E+00  0.00000000E+00  0.00000000E+00
  0.00000000E+00  0.00000000E+00  0.00000000E+00
