POSCAR file written by OVITO Basic 3.10.
   1.00000000000000     
    12.9327613543104682   -0.0000003860852482    0.0000004879817057
    -0.0000005021428238   15.4907720895669314   -0.0000017861186966
     0.0000007013448509   -0.0000018598139700   16.5049707084072139
  Mg/a90315392b5  Ca_sv/a4736583
142   2
Direct
0.25037006   0.16666831   0.06038922
0.00000130   0.16666820   0.06039419
0.12511926   0.16666666   0.22719466
0.12581923   0.33237900   0.11524136
0.12582003   0.00095730   0.11524110
0.50000147   0.16666837   0.06036141
0.37541633   0.16666658   0.22669508
0.62505135   -0.00029830   0.11464186
0.62505142   0.33363387   0.11464133
0.37494983   0.33363358   0.11464139
0.62458752   0.16666667   0.22669455
0.37495050   -0.00029808   0.11464139
0.37480602   0.49996417   0.22640579
0.74963205   0.16666838   0.06038945
0.87418216   0.33237921   0.11524125
0.87488553   0.16666678   0.22719475
0.87418233   0.00095727   0.11524140
0.25053472   0.33300398   0.28155154
0.12496848   0.33327005   0.44793776
0.00000202   0.33291585   0.28134964
0.25005507   0.16666521   0.39350316
0.25036400   0.49963995   0.39410187
0.00000182   0.49984842   0.39481197
0.00000094   0.16666460   0.39350111
0.50000173   0.49976628   0.39330403
0.62486218   0.33303147   0.44780299
0.50000070   0.16666560   0.39336164
0.37514066   0.33303166   0.44780323
0.50000203   0.33343535   0.28110847
0.74994648   0.16666520   0.39350328
0.74946951   0.33300402   0.28155133
0.87503401   0.33327018   0.44793770
0.74963944   0.49963980   0.39410207
0.12475368   0.16666498   0.56009432
0.25028926   0.33290223   0.61409478
0.25017171   0.16666667   0.72668322
0.12486835   0.49994158   0.56112326
0.62520139   0.16666546   0.55999163
0.37479593   0.16666520   0.55999179
0.49999951   0.33303049   0.61428899
0.49999799   0.16666671   0.72621182
0.37526988   0.49950302   0.55937321
0.49999785   0.49924476   0.72554084
0.99999791   0.16666674   0.72659529
0.99999934   0.33351238   0.61472553
0.87524415   0.16666530   0.56009413
0.74970999   0.33290126   0.61409501
0.74982457   0.16666665   0.72668331
0.87513005   0.49994142   0.56112342
0.74807230   0.49877323   0.72532591
0.25103617   0.33222366   0.94815820
0.12526178   0.16666831   0.89347550
0.12519590   0.33230043   0.78028285
0.25103610   0.00111310   0.94815854
0.12519530   0.00103404   0.78028296
0.62475865   0.16666808   0.89315863
0.49999915   0.33270384   0.94802357
0.37523952   0.16666817   0.89315870
0.62480532   0.33269194   0.78101087
0.37519149   0.33269200   0.78101068
0.62480534   0.00064261   0.78101056
0.49999900   0.00063260   0.94802291
0.37519098   0.00064248   0.78101063
0.99999864   0.33237000   0.94791185
0.74896192   0.33222342   0.94815829
0.99999860   0.00096766   0.94791179
0.87480022   0.00103385   0.78028273
0.87473695   0.16666833   0.89347543
0.87480063   0.33230084   0.78028289
0.74896153   0.00111297   0.94815868
0.24752728   0.83227716   0.05909324
0.12599106   0.66666788   0.11995811
0.12561162   0.83422792   0.22880968
0.00000114   0.49581478   0.06323538
0.24752630   0.50105889   0.05909257
0.00000158   0.83752278   0.06323551
0.12561147   0.49910538   0.22880950
0.50000120   0.83342661   0.05963916
0.37602379   0.66666762   0.11543546
0.37480600   0.83336945   0.22640591
0.62397708   0.66666775   0.11543504
0.62519894   0.83336879   0.22640582
0.50000061   0.49991000   0.05963855
0.62519885   0.49996435   0.22640576
0.75247600   0.83227685   0.05909281
0.87439379   0.83422775   0.22881043
0.87401024   0.66666793   0.11995844
0.75247541   0.50105987   0.05909245
0.87439352   0.49910542   0.22881018
0.00000284   0.66666590   0.28360179
0.25036403   0.83369002   0.39410188
0.25082846   0.66666600   0.28243353
0.00000154   0.83348150   0.39481221
0.12541040   0.66666462   0.44815200
0.00000239   0.00041603   0.28134939
0.25053517   0.00032805   0.28155129
0.12496858   0.00005901   0.44793760
0.37514043   0.00029817   0.44780311
0.50000149   0.83356439   0.39330379
0.37545282   0.66666471   0.44776967
0.50000212   0.66666613   0.28168070
0.62455061   0.66666455   0.44776938
0.62486180   0.00029806   0.44780311
0.50000248   -0.00010291   0.28110847
0.74963893   0.83368998   0.39410224
0.87459209   0.66666481   0.44815181
0.74917542   0.66666598   0.28243297
0.74946981   0.00032806   0.28155160
0.87503409   0.00005897   0.44793769
0.12486793   0.83338755   0.56112339
0.25192247   0.83455979   0.72532619
0.25127827   0.66666514   0.61326719
0.25028805   0.00042903   0.61409486
0.25192292   0.49877340   0.72532596
0.62472783   0.83382672   0.55937309
0.37526954   0.83382694   0.55937320
0.49999736   0.83408847   0.72554084
0.49999917   0.66666508   0.61383238
0.49999889   0.00030067   0.61428885
0.99999937   0.66666492   0.61343302
0.99999884   -0.00018221   0.61472530
0.99999750   0.83175952   0.72933126
0.87512946   0.83338752   0.56112349
0.74807196   0.83455960   0.72532584
0.74872010   0.66666483   0.61326698
0.99999774   0.50157340   0.72933095
0.74970976   0.00042944   0.61409489
0.13117737   0.66666692   0.77716190
0.25586389   0.66666856   0.94621109
0.12934637   0.83785782   0.89172557
0.12934569   0.49547922   0.89172543
0.62310642   0.49858629   0.89281476
0.37689033   0.49858640   0.89281461
0.62310643   0.83475040   0.89281467
0.62279303   0.66666718   0.77962013
0.49999779   0.66666882   0.94774528
0.37720216   0.66666730   0.77962030
0.37689033   0.83475036   0.89281506
0.87065075   0.49547888   0.89172508
0.86881782   0.66666700   0.77716175
0.87065066   0.83785834   0.89172508
0.74413127   0.66666875   0.94621042
0.99999696   0.66666901   0.94675321
0.62472855   0.49950292   0.55937312
  0.7494698143231615  0.0003280623919977  0.2815515995120322
  0.8750340936670157  0.0000589748026091  0.4479376897781202
  0.1248679266798508  0.8333875494220763  0.5611233911058019
  0.2519224699575561  0.8345597862875509  0.7253261910774137
  0.2512782730019172  0.6666651447621333  0.6132671908637983
  0.2502880529565829  0.0004290305290985  0.6140948617370785
  0.2519229188279761  0.4987733969303754  0.7253259582673376
  0.6247278299575407  0.8338267231064984  0.5593730923671709
  0.3752695448776272  0.8338269393839173  0.5593732026986391
  0.4999973585646288  0.8340884704976425  0.7255408435427778
  0.4999991733719383  0.6666650780208164  0.6138323822307935
  0.4999988888409476  0.0003006739087217  0.6142888519617693
  0.9999993675685055  0.6666649171791792  0.6134330160555852
  0.9999988423317808 -0.0001822125283828  0.6147253029972062
  0.9999975008909214  0.8317595220988104  0.7293312611978033
  0.8751294555734958  0.8333875161658139  0.5611234916399362
  0.7480719598136454  0.8345595971156511  0.7253258393628463
  0.7487200992216264  0.6666648321881838  0.6132669778087981
  0.9999977428289780  0.5015733953701319  0.7293309468675913
  0.7497097629042879  0.0004294413219788  0.6140948865548699
  0.1311773745110649  0.6666669160743299  0.7771619029877612
  0.2558638883312215  0.6666685600642516  0.9462110915330715
  0.1293463676501435  0.8378578216452069  0.8917255699135199
  0.1293456875075084  0.4954792197179622  0.8917254313927706
  0.6231064198480293  0.4985862925333159  0.8928147649730134
  0.3768903348359676  0.4985864002198015  0.8928146090088048
  0.6231064331770592  0.8347503983429987  0.8928146695999585
  0.6227930254161573  0.6666671797911864  0.7796201322491138
  0.4999977859830532  0.6666688220198077  0.9477452791431813
  0.3772021570946046  0.6666672957827362  0.7796203004158051
  0.3768903290363806  0.8347503635992385  0.8928150557470840
  0.8706507475076929  0.4954788847359636  0.8917250828139627
  0.8688178229332681  0.6666670019927726  0.7771617461107307
  0.8706506584138446  0.8378583356685194  0.8917250815976453
  0.7441312680215290  0.6666687465178506  0.9462104175656787
  0.9999969609660219  0.6666690078423761  0.9467532142165658
 
  0.00000000E+00  0.00000000E+00  0.00000000E+00
  0.00000000E+00  0.00000000E+00  0.00000000E+00
  0.00000000E+00  0.00000000E+00  0.00000000E+00
  0.00000000E+00  0.00000000E+00  0.00000000E+00
  0.00000000E+00  0.00000000E+00  0.00000000E+00
  0.00000000E+00  0.00000000E+00  0.00000000E+00
  0.00000000E+00  0.00000000E+00  0.00000000E+00
  0.00000000E+00  0.00000000E+00  0.00000000E+00
  0.00000000E+00  0.00000000E+00  0.00000000E+00
  0.00000000E+00  0.00000000E+00  0.00000000E+00
  0.00000000E+00  0.00000000E+00  0.00000000E+00
  0.00000000E+00  0.00000000E+00  0.00000000E+00
  0.00000000E+00  0.00000000E+00  0.00000000E+00
  0.00000000E+00  0.00000000E+00  0.00000000E+00
  0.00000000E+00  0.00000000E+00  0.00000000E+00
  0.00000000E+00  0.00000000E+00  0.00000000E+00
  0.00000000E+00  0.00000000E+00  0.00000000E+00
  0.00000000E+00  0.00000000E+00  0.00000000E+00
  0.00000000E+00  0.00000000E+00  0.00000000E+00
  0.00000000E+00  0.00000000E+00  0.00000000E+00
  0.00000000E+00  0.00000000E+00  0.00000000E+00
  0.00000000E+00  0.00000000E+00  0.00000000E+00
  0.00000000E+00  0.00000000E+00  0.00000000E+00
  0.00000000E+00  0.00000000E+00  0.00000000E+00
  0.00000000E+00  0.00000000E+00  0.00000000E+00
  0.00000000E+00  0.00000000E+00  0.00000000E+00
  0.00000000E+00  0.00000000E+00  0.00000000E+00
  0.00000000E+00  0.00000000E+00  0.00000000E+00
  0.00000000E+00  0.00000000E+00  0.00000000E+00
  0.00000000E+00  0.00000000E+00  0.00000000E+00
  0.00000000E+00  0.00000000E+00  0.00000000E+00
  0.00000000E+00  0.00000000E+00  0.00000000E+00
  0.00000000E+00  0.00000000E+00  0.00000000E+00
  0.00000000E+00  0.00000000E+00  0.00000000E+00
  0.00000000E+00  0.00000000E+00  0.00000000E+00
  0.00000000E+00  0.00000000E+00  0.00000000E+00
  0.00000000E+00  0.00000000E+00  0.00000000E+00
  0.00000000E+00  0.00000000E+00  0.00000000E+00
  0.00000000E+00  0.00000000E+00  0.00000000E+00
  0.00000000E+00  0.00000000E+00  0.00000000E+00
  0.00000000E+00  0.00000000E+00  0.00000000E+00
  0.00000000E+00  0.00000000E+00  0.00000000E+00
  0.00000000E+00  0.00000000E+00  0.00000000E+00
  0.00000000E+00  0.00000000E+00  0.00000000E+00
  0.00000000E+00  0.00000000E+00  0.00000000E+00
  0.00000000E+00  0.00000000E+00  0.00000000E+00
  0.00000000E+00  0.00000000E+00  0.00000000E+00
  0.00000000E+00  0.00000000E+00  0.00000000E+00
  0.00000000E+00  0.00000000E+00  0.00000000E+00
  0.00000000E+00  0.00000000E+00  0.00000000E+00
  0.00000000E+00  0.00000000E+00  0.00000000E+00
  0.00000000E+00  0.00000000E+00  0.00000000E+00
  0.00000000E+00  0.00000000E+00  0.00000000E+00
  0.00000000E+00  0.00000000E+00  0.00000000E+00
  0.00000000E+00  0.00000000E+00  0.00000000E+00
  0.00000000E+00  0.00000000E+00  0.00000000E+00
  0.00000000E+00  0.00000000E+00  0.00000000E+00
  0.00000000E+00  0.00000000E+00  0.00000000E+00
  0.00000000E+00  0.00000000E+00  0.00000000E+00
  0.00000000E+00  0.00000000E+00  0.00000000E+00
  0.00000000E+00  0.00000000E+00  0.00000000E+00
  0.00000000E+00  0.00000000E+00  0.00000000E+00
  0.00000000E+00  0.00000000E+00  0.00000000E+00
  0.00000000E+00  0.00000000E+00  0.00000000E+00
  0.00000000E+00  0.00000000E+00  0.00000000E+00
  0.00000000E+00  0.00000000E+00  0.00000000E+00
  0.00000000E+00  0.00000000E+00  0.00000000E+00
  0.00000000E+00  0.00000000E+00  0.00000000E+00
  0.00000000E+00  0.00000000E+00  0.00000000E+00
  0.00000000E+00  0.00000000E+00  0.00000000E+00
  0.00000000E+00  0.00000000E+00  0.00000000E+00
  0.00000000E+00  0.00000000E+00  0.00000000E+00
  0.00000000E+00  0.00000000E+00  0.00000000E+00
  0.00000000E+00  0.00000000E+00  0.00000000E+00
  0.00000000E+00  0.00000000E+00  0.00000000E+00
  0.00000000E+00  0.00000000E+00  0.00000000E+00
  0.00000000E+00  0.00000000E+00  0.00000000E+00
  0.00000000E+00  0.00000000E+00  0.00000000E+00
  0.00000000E+00  0.00000000E+00  0.00000000E+00
  0.00000000E+00  0.00000000E+00  0.00000000E+00
  0.00000000E+00  0.00000000E+00  0.00000000E+00
  0.00000000E+00  0.00000000E+00  0.00000000E+00
  0.00000000E+00  0.00000000E+00  0.00000000E+00
  0.00000000E+00  0.00000000E+00  0.00000000E+00
  0.00000000E+00  0.00000000E+00  0.00000000E+00
  0.00000000E+00  0.00000000E+00  0.00000000E+00
  0.00000000E+00  0.00000000E+00  0.00000000E+00
  0.00000000E+00  0.00000000E+00  0.00000000E+00
  0.00000000E+00  0.00000000E+00  0.00000000E+00
  0.00000000E+00  0.00000000E+00  0.00000000E+00
  0.00000000E+00  0.00000000E+00  0.00000000E+00
  0.00000000E+00  0.00000000E+00  0.00000000E+00
  0.00000000E+00  0.00000000E+00  0.00000000E+00
  0.00000000E+00  0.00000000E+00  0.00000000E+00
  0.00000000E+00  0.00000000E+00  0.00000000E+00
  0.00000000E+00  0.00000000E+00  0.00000000E+00
  0.00000000E+00  0.00000000E+00  0.00000000E+00
  0.00000000E+00  0.00000000E+00  0.00000000E+00
  0.00000000E+00  0.00000000E+00  0.00000000E+00
  0.00000000E+00  0.00000000E+00  0.00000000E+00
  0.00000000E+00  0.00000000E+00  0.00000000E+00
  0.00000000E+00  0.00000000E+00  0.00000000E+00
  0.00000000E+00  0.00000000E+00  0.00000000E+00
  0.00000000E+00  0.00000000E+00  0.00000000E+00
  0.00000000E+00  0.00000000E+00  0.00000000E+00
  0.00000000E+00  0.00000000E+00  0.00000000E+00
  0.00000000E+00  0.00000000E+00  0.00000000E+00
  0.00000000E+00  0.00000000E+00  0.00000000E+00
  0.00000000E+00  0.00000000E+00  0.00000000E+00
  0.00000000E+00  0.00000000E+00  0.00000000E+00
  0.00000000E+00  0.00000000E+00  0.00000000E+00
  0.00000000E+00  0.00000000E+00  0.00000000E+00
  0.00000000E+00  0.00000000E+00  0.00000000E+00
  0.00000000E+00  0.00000000E+00  0.00000000E+00
  0.00000000E+00  0.00000000E+00  0.00000000E+00
  0.00000000E+00  0.00000000E+00  0.00000000E+00
  0.00000000E+00  0.00000000E+00  0.00000000E+00
  0.00000000E+00  0.00000000E+00  0.00000000E+00
  0.00000000E+00  0.00000000E+00  0.00000000E+00
  0.00000000E+00  0.00000000E+00  0.00000000E+00
  0.00000000E+00  0.00000000E+00  0.00000000E+00
  0.00000000E+00  0.00000000E+00  0.00000000E+00
  0.00000000E+00  0.00000000E+00  0.00000000E+00
  0.00000000E+00  0.00000000E+00  0.00000000E+00
  0.00000000E+00  0.00000000E+00  0.00000000E+00
  0.00000000E+00  0.00000000E+00  0.00000000E+00
  0.00000000E+00  0.00000000E+00  0.00000000E+00
  0.00000000E+00  0.00000000E+00  0.00000000E+00
  0.00000000E+00  0.00000000E+00  0.00000000E+00
  0.00000000E+00  0.00000000E+00  0.00000000E+00
  0.00000000E+00  0.00000000E+00  0.00000000E+00
  0.00000000E+00  0.00000000E+00  0.00000000E+00
  0.00000000E+00  0.00000000E+00  0.00000000E+00
  0.00000000E+00  0.00000000E+00  0.00000000E+00
  0.00000000E+00  0.00000000E+00  0.00000000E+00
  0.00000000E+00  0.00000000E+00  0.00000000E+00
  0.00000000E+00  0.00000000E+00  0.00000000E+00
  0.00000000E+00  0.00000000E+00  0.00000000E+00
  0.00000000E+00  0.00000000E+00  0.00000000E+00
  0.00000000E+00  0.00000000E+00  0.00000000E+00
  0.00000000E+00  0.00000000E+00  0.00000000E+00
  0.00000000E+00  0.00000000E+00  0.00000000E+00
  0.00000000E+00  0.00000000E+00  0.00000000E+00
  0.00000000E+00  0.00000000E+00  0.00000000E+00
